50
26209

492 557
922 287
927 228
814 870
427 298
842 502
590 900
595 17
485 775
159 525
983 255
626 127
918 782
977 852
448 324
183 427
463 257
472 506
456 579
879 562
226 861
505 763
580 942
183 559
963 569
890 767
888 242
565 538
325 84
421 372
564 736
443 742
981 484
542 137
298 834
525 197
616 635
281 542
861 562
301 70
679 493
257 760
885 796
786 462
710 939
574 490
863 378
10 11
417 482
34 794
